
Gurobi 9.5.1 (mac64[x86]) logging started Tue Jun  7 23:19:41 2022

Set parameter LogFile to value "/Users/keyvanmajd/Documents/GitHub/NNRepLayer_v2/demos/examples/tc7_walking_example/repair_inp_out_constraint/repair_net/logs/opt_log_6_7_2022_23_19_18.log"
Gurobi Optimizer version 9.5.1 build v9.5.1rc2 (mac64[x86])
Thread count: 4 physical cores, 8 logical processors, using up to 8 threads
Optimize a model with 366 rows, 134 columns and 968 nonzeros
Model fingerprint: 0xae668f60
Model has 101 quadratic objective terms
Coefficient statistics:
  Matrix range     [1e-02, 3e+01]
  Objective range  [2e-03, 4e-01]
  QObjective range [2e-02, 2e+00]
  Bounds range     [1e+01, 1e+02]
  RHS range        [1e-03, 2e+01]
Presolve removed 235 rows and 20 columns
Presolve time: 0.00s
Presolved: 131 rows, 114 columns, 722 nonzeros
Presolved model has 101 quadratic objective terms
Ordering time: 0.00s

Barrier statistics:
 Dense cols : 10
 AA' NZ     : 9.210e+02
 Factor NZ  : 1.389e+03
 Factor Ops : 2.158e+04 (less than 1 second per iteration)
 Threads    : 1

                  Objective                Residual
Iter       Primal          Dual         Primal    Dual     Compl     Time
   0   1.62520038e+07 -1.63688615e+07  2.86e+03 4.35e+02  9.24e+05     0s
   1   4.44367202e+06 -4.71521638e+06  1.45e+03 2.20e+02  4.97e+05     0s
   2   8.87146048e+03 -7.11829688e+05  6.75e+01 1.03e+01  3.20e+04     0s
   3   2.54774076e+01 -3.50818313e+05  1.85e+00 2.82e-01  2.04e+03     0s
   4   1.55260719e+01 -1.29417841e+05  2.56e-01 3.89e-02  5.52e+02     0s
   5   1.62694119e+01 -2.12149056e+04  3.11e-02 4.72e-03  8.21e+01     0s
   6   1.63066502e+01 -8.76557607e+01  4.64e-05 7.06e-06  3.94e-01     0s
   7   9.84930338e+00 -7.64188085e+00  6.37e-06 9.69e-07  6.63e-02     0s
   8   6.87689379e+00  3.77305324e+00  3.03e-07 4.61e-08  1.18e-02     0s
   9   6.61631641e+00  5.48907958e+00  2.14e-08 3.26e-09  4.27e-03     0s
  10   6.50322741e+00  6.13249169e+00  5.37e-09 8.18e-10  1.40e-03     0s
  11   6.48182681e+00  6.33626476e+00  7.48e-10 1.14e-10  5.51e-04     0s
  12   6.46641669e+00  6.45600811e+00  4.70e-11 7.53e-12  3.94e-05     0s
  13   6.46508469e+00  6.46506646e+00  2.87e-12 1.20e-13  6.91e-08     0s
  14   6.46507680e+00  6.46507678e+00  1.72e-10 9.48e-12  6.92e-11     0s

Barrier solved model in 14 iterations and 0.00 seconds (0.00 work units)
Optimal objective 6.46507680e+00

